(set-logic QF_SLIA)
(set-option :produce-models true)
(declare-fun x () String)
(assert (str.in_re x (re.+ (re.range "1" "3"))))
(assert (= (mod (mod (str.to_int x) 295) 95) 79))
(assert (< (str.len x) 100))
(check-sat)
(get-model)